n=11;
m=46;
k=4;
initial_edges=[
(1, 5),
(1, 8),
(1, 9),
(1, 7),
(1, 6),
(1, 4),
(1, 3),
(1, 10),
(2, 3),
(2, 7),
(2, 11),
(2, 9),
(2, 5),
(2, 6),
(3, 4),
(3, 6),
(3, 8),
(3, 9),
(3, 7),
(3, 5),
(3, 11),
(4, 5),
(4, 7),
(4, 6),
(4, 10),
(4, 8),
(4, 11),
(5, 11),
(5, 7),
(5, 10),
(5, 9),
(5, 6),
(6, 8),
(6, 11),
(6, 7),
(6, 10),
(7, 10),
(7, 11),
(7, 9),
(7, 8),
(8, 9),
(8, 11),
(8, 10),
(9, 10),
(9, 11),
(10, 11),
];